objective value:                      2.3065462699377
x(0,2,0)                                            1 	(obj:0)
x(1,14,0)                                           1 	(obj:0)
x(2,3,0)                                            1 	(obj:0)
x(3,1,0)                                            1 	(obj:0)
x(4,0,0)                                            1 	(obj:0)
x(14,4,0)                                           1 	(obj:0)
xc(0,10)                                            1 	(obj:0)
xc(1,9)                                             1 	(obj:0)
xc(2,12)                                            1 	(obj:0)
xc(3,11)                                            1 	(obj:0)
u(0,0)                              0.391329685553799 	(obj:0)
u(1,0)                                1.6122984315864 	(obj:0)
u(2,0)                              0.831538515867897 	(obj:0)
u(3,0)                                1.3812515696367 	(obj:0)
u(7,0)                                2.3065462699377 	(obj:0)
u(9,0)                                2.3065462699377 	(obj:0)
u(10,0)                               2.3065462699377 	(obj:0)
u(11,0)                               2.3065462699377 	(obj:0)
u(12,0)                               2.3065462699377 	(obj:0)
u(13,0)                               2.3065462699377 	(obj:0)
u(14,0)                               2.3065462699377 	(obj:0)
u(15,0)                               2.3065462699377 	(obj:0)
u(16,0)                               2.3065462699377 	(obj:0)
u(17,0)                               2.3065462699377 	(obj:0)
u(18,0)                               2.3065462699377 	(obj:0)
u(19,0)                               2.3065462699377 	(obj:0)
f(0,2,0)                                            1 	(obj:0)
f(0,2,4)                                            1 	(obj:0)
f(1,9,0)                                            1 	(obj:0)
f(1,9,1)                                            1 	(obj:0)
f(1,9,2)                                            1 	(obj:0)
f(1,9,3)                                            1 	(obj:0)
f(1,9,4)                                            1 	(obj:0)
f(2,3,0)                                            1 	(obj:0)
f(2,3,2)                                            1 	(obj:0)
f(2,3,4)                                            1 	(obj:0)
f(3,1,0)                                            1 	(obj:0)
f(3,1,2)                                            1 	(obj:0)
f(3,1,3)                                            1 	(obj:0)
f(3,1,4)                                            1 	(obj:0)
f(4,0,4)                                            1 	(obj:0)
z_r(0,)                               2.3065462699377 	(obj:0)
z                                     2.3065462699377 	(obj:1)
